p cnf 240 2552
1 2 3 0
4 5 6 0
7 8 9 0
10 11 12 0
13 14 15 0
16 17 18 0
19 20 21 0
22 23 24 0
25 26 27 0
28 29 30 0
31 32 33 0
34 35 36 0
37 38 39 0
40 41 42 0
43 44 45 0
46 47 48 0
49 50 51 0
52 53 54 0
55 56 57 0
58 59 60 0
61 62 63 0
64 65 66 0
67 68 69 0
70 71 72 0
73 74 75 0
76 77 78 0
79 80 81 0
82 83 84 0
85 86 87 0
88 89 90 0
91 92 93 0
94 95 96 0
97 98 99 0
100 101 102 0
103 104 105 0
106 107 108 0
109 110 111 0
112 113 114 0
115 116 117 0
118 119 120 0
121 122 123 0
124 125 126 0
127 128 129 0
130 131 132 0
133 134 135 0
136 137 138 0
139 140 141 0
142 143 144 0
145 146 147 0
148 149 150 0
151 152 153 0
154 155 156 0
157 158 159 0
160 161 162 0
163 164 165 0
166 167 168 0
169 170 171 0
172 173 174 0
175 176 177 0
178 179 180 0
181 182 183 0
184 185 186 0
187 188 189 0
190 191 192 0
193 194 195 0
196 197 198 0
199 200 201 0
202 203 204 0
205 206 207 0
208 209 210 0
211 212 213 0
214 215 216 0
217 218 219 0
220 221 222 0
223 224 225 0
226 227 228 0
229 230 231 0
232 233 234 0
235 236 237 0
238 239 240 0
-1 -2 0
-1 -3 0
-2 -3 0
-4 -5 0
-4 -6 0
-5 -6 0
-7 -8 0
-7 -9 0
-8 -9 0
-10 -11 0
-10 -12 0
-11 -12 0
-13 -14 0
-13 -15 0
-14 -15 0
-16 -17 0
-16 -18 0
-17 -18 0
-19 -20 0
-19 -21 0
-20 -21 0
-22 -23 0
-22 -24 0
-23 -24 0
-25 -26 0
-25 -27 0
-26 -27 0
-28 -29 0
-28 -30 0
-29 -30 0
-31 -32 0
-31 -33 0
-32 -33 0
-34 -35 0
-34 -36 0
-35 -36 0
-37 -38 0
-37 -39 0
-38 -39 0
-40 -41 0
-40 -42 0
-41 -42 0
-43 -44 0
-43 -45 0
-44 -45 0
-46 -47 0
-46 -48 0
-47 -48 0
-49 -50 0
-49 -51 0
-50 -51 0
-52 -53 0
-52 -54 0
-53 -54 0
-55 -56 0
-55 -57 0
-56 -57 0
-58 -59 0
-58 -60 0
-59 -60 0
-61 -62 0
-61 -63 0
-62 -63 0
-64 -65 0
-64 -66 0
-65 -66 0
-67 -68 0
-67 -69 0
-68 -69 0
-70 -71 0
-70 -72 0
-71 -72 0
-73 -74 0
-73 -75 0
-74 -75 0
-76 -77 0
-76 -78 0
-77 -78 0
-79 -80 0
-79 -81 0
-80 -81 0
-82 -83 0
-82 -84 0
-83 -84 0
-85 -86 0
-85 -87 0
-86 -87 0
-88 -89 0
-88 -90 0
-89 -90 0
-91 -92 0
-91 -93 0
-92 -93 0
-94 -95 0
-94 -96 0
-95 -96 0
-97 -98 0
-97 -99 0
-98 -99 0
-100 -101 0
-100 -102 0
-101 -102 0
-103 -104 0
-103 -105 0
-104 -105 0
-106 -107 0
-106 -108 0
-107 -108 0
-109 -110 0
-109 -111 0
-110 -111 0
-112 -113 0
-112 -114 0
-113 -114 0
-115 -116 0
-115 -117 0
-116 -117 0
-118 -119 0
-118 -120 0
-119 -120 0
-121 -122 0
-121 -123 0
-122 -123 0
-124 -125 0
-124 -126 0
-125 -126 0
-127 -128 0
-127 -129 0
-128 -129 0
-130 -131 0
-130 -132 0
-131 -132 0
-133 -134 0
-133 -135 0
-134 -135 0
-136 -137 0
-136 -138 0
-137 -138 0
-139 -140 0
-139 -141 0
-140 -141 0
-142 -143 0
-142 -144 0
-143 -144 0
-145 -146 0
-145 -147 0
-146 -147 0
-148 -149 0
-148 -150 0
-149 -150 0
-151 -152 0
-151 -153 0
-152 -153 0
-154 -155 0
-154 -156 0
-155 -156 0
-157 -158 0
-157 -159 0
-158 -159 0
-160 -161 0
-160 -162 0
-161 -162 0
-163 -164 0
-163 -165 0
-164 -165 0
-166 -167 0
-166 -168 0
-167 -168 0
-169 -170 0
-169 -171 0
-170 -171 0
-172 -173 0
-172 -174 0
-173 -174 0
-175 -176 0
-175 -177 0
-176 -177 0
-178 -179 0
-178 -180 0
-179 -180 0
-181 -182 0
-181 -183 0
-182 -183 0
-184 -185 0
-184 -186 0
-185 -186 0
-187 -188 0
-187 -189 0
-188 -189 0
-190 -191 0
-190 -192 0
-191 -192 0
-193 -194 0
-193 -195 0
-194 -195 0
-196 -197 0
-196 -198 0
-197 -198 0
-199 -200 0
-199 -201 0
-200 -201 0
-202 -203 0
-202 -204 0
-203 -204 0
-205 -206 0
-205 -207 0
-206 -207 0
-208 -209 0
-208 -210 0
-209 -210 0
-211 -212 0
-211 -213 0
-212 -213 0
-214 -215 0
-214 -216 0
-215 -216 0
-217 -218 0
-217 -219 0
-218 -219 0
-220 -221 0
-220 -222 0
-221 -222 0
-223 -224 0
-223 -225 0
-224 -225 0
-226 -227 0
-226 -228 0
-227 -228 0
-229 -230 0
-229 -231 0
-230 -231 0
-232 -233 0
-232 -234 0
-233 -234 0
-235 -236 0
-235 -237 0
-236 -237 0
-238 -239 0
-238 -240 0
-239 -240 0
-1 -61 0
-1 -70 0
-1 -133 0
-1 -148 0
-1 -175 0
-1 -184 0
-1 -193 0
-4 -10 0
-4 -22 0
-4 -43 0
-4 -61 0
-4 -76 0
-4 -109 0
-4 -145 0
-4 -196 0
-4 -199 0
-7 -67 0
-7 -85 0
-7 -88 0
-7 -94 0
-7 -139 0
-7 -157 0
-7 -163 0
-7 -178 0
-7 -190 0
-7 -199 0
-10 -4 0
-10 -16 0
-10 -28 0
-10 -58 0
-10 -82 0
-10 -94 0
-10 -127 0
-10 -130 0
-10 -145 0
-10 -232 0
-13 -97 0
-13 -109 0
-13 -148 0
-13 -157 0
-13 -163 0
-13 -166 0
-13 -169 0
-13 -178 0
-13 -205 0
-13 -232 0
-16 -10 0
-16 -19 0
-16 -85 0
-16 -109 0
-16 -127 0
-16 -196 0
-16 -235 0
-16 -238 0
-19 -16 0
-19 -28 0
-19 -52 0
-19 -58 0
-19 -61 0
-19 -145 0
-19 -148 0
-19 -154 0
-19 -163 0
-19 -178 0
-22 -4 0
-22 -31 0
-22 -37 0
-22 -40 0
-22 -124 0
-22 -139 0
-22 -160 0
-22 -181 0
-22 -223 0
-25 -28 0
-25 -61 0
-25 -79 0
-25 -100 0
-25 -136 0
-25 -166 0
-25 -205 0
-25 -211 0
-25 -217 0
-25 -220 0
-28 -10 0
-28 -19 0
-28 -25 0
-28 -94 0
-28 -121 0
-28 -124 0
-28 -172 0
-28 -181 0
-28 -205 0
-28 -220 0
-31 -22 0
-31 -37 0
-31 -55 0
-31 -61 0
-31 -94 0
-31 -130 0
-31 -148 0
-31 -238 0
-34 -118 0
-34 -136 0
-34 -139 0
-34 -154 0
-34 -166 0
-34 -169 0
-34 -214 0
-34 -217 0
-37 -22 0
-37 -31 0
-37 -52 0
-37 -97 0
-37 -142 0
-37 -175 0
-37 -193 0
-37 -208 0
-37 -211 0
-37 -226 0
-40 -22 0
-40 -82 0
-40 -91 0
-40 -97 0
-40 -121 0
-40 -145 0
-40 -166 0
-40 -190 0
-40 -193 0
-40 -214 0
-43 -4 0
-43 -52 0
-43 -73 0
-43 -85 0
-43 -145 0
-43 -154 0
-43 -172 0
-43 -175 0
-43 -211 0
-46 -52 0
-46 -88 0
-46 -94 0
-46 -106 0
-46 -136 0
-46 -160 0
-46 -205 0
-46 -217 0
-49 -58 0
-49 -88 0
-49 -118 0
-49 -121 0
-49 -193 0
-49 -196 0
-49 -205 0
-49 -235 0
-49 -238 0
-52 -19 0
-52 -37 0
-52 -43 0
-52 -46 0
-52 -70 0
-52 -91 0
-52 -130 0
-52 -187 0
-52 -208 0
-52 -223 0
-55 -31 0
-55 -61 0
-55 -94 0
-55 -127 0
-55 -151 0
-55 -184 0
-55 -202 0
-55 -232 0
-55 -235 0
-58 -10 0
-58 -19 0
-58 -49 0
-58 -67 0
-58 -106 0
-58 -136 0
-58 -166 0
-58 -175 0
-58 -196 0
-58 -217 0
-61 -1 0
-61 -4 0
-61 -19 0
-61 -25 0
-61 -31 0
-61 -55 0
-61 -76 0
-61 -139 0
-64 -76 0
-64 -91 0
-64 -100 0
-64 -106 0
-64 -124 0
-64 -133 0
-64 -139 0
-64 -184 0
-64 -193 0
-64 -223 0
-67 -7 0
-67 -58 0
-67 -85 0
-67 -94 0
-67 -145 0
-67 -160 0
-67 -181 0
-67 -190 0
-67 -193 0
-67 -208 0
-70 -1 0
-70 -52 0
-70 -127 0
-70 -163 0
-70 -169 0
-70 -208 0
-70 -214 0
-73 -43 0
-73 -82 0
-73 -109 0
-73 -127 0
-73 -175 0
-73 -181 0
-73 -199 0
-73 -229 0
-73 -238 0
-76 -4 0
-76 -61 0
-76 -64 0
-76 -88 0
-76 -97 0
-76 -106 0
-76 -178 0
-76 -187 0
-79 -25 0
-79 -82 0
-79 -85 0
-79 -127 0
-79 -130 0
-79 -178 0
-79 -181 0
-79 -220 0
-79 -229 0
-82 -10 0
-82 -40 0
-82 -73 0
-82 -79 0
-82 -91 0
-82 -109 0
-82 -121 0
-82 -166 0
-82 -208 0
-82 -235 0
-85 -7 0
-85 -16 0
-85 -43 0
-85 -67 0
-85 -79 0
-85 -88 0
-85 -166 0
-85 -208 0
-85 -223 0
-85 -226 0
-88 -7 0
-88 -46 0
-88 -49 0
-88 -76 0
-88 -85 0
-88 -97 0
-88 -142 0
-88 -199 0
-88 -214 0
-88 -226 0
-91 -40 0
-91 -52 0
-91 -64 0
-91 -82 0
-91 -139 0
-91 -163 0
-91 -190 0
-91 -196 0
-91 -208 0
-91 -238 0
-94 -7 0
-94 -10 0
-94 -28 0
-94 -31 0
-94 -46 0
-94 -55 0
-94 -67 0
-94 -127 0
-94 -139 0
-97 -13 0
-97 -37 0
-97 -40 0
-97 -76 0
-97 -88 0
-97 -160 0
-97 -169 0
-97 -175 0
-97 -181 0
-97 -238 0
-100 -25 0
-100 -64 0
-100 -106 0
-100 -130 0
-100 -136 0
-100 -139 0
-100 -154 0
-100 -190 0
-103 -112 0
-103 -121 0
-103 -124 0
-103 -157 0
-103 -166 0
-103 -211 0
-103 -220 0
-103 -232 0
-106 -46 0
-106 -58 0
-106 -64 0
-106 -76 0
-106 -100 0
-106 -115 0
-106 -157 0
-106 -163 0
-106 -202 0
-109 -4 0
-109 -13 0
-109 -16 0
-109 -73 0
-109 -82 0
-109 -112 0
-109 -121 0
-109 -127 0
-109 -133 0
-112 -103 0
-112 -109 0
-112 -127 0
-112 -136 0
-112 -139 0
-112 -172 0
-112 -187 0
-112 -190 0
-112 -226 0
-115 -106 0
-115 -121 0
-115 -127 0
-115 -130 0
-115 -136 0
-115 -145 0
-115 -181 0
-115 -193 0
-115 -205 0
-115 -229 0
-118 -34 0
-118 -49 0
-118 -124 0
-118 -130 0
-118 -169 0
-118 -175 0
-118 -184 0
-118 -199 0
-118 -220 0
-118 -226 0
-121 -28 0
-121 -40 0
-121 -49 0
-121 -82 0
-121 -103 0
-121 -109 0
-121 -115 0
-121 -133 0
-121 -154 0
-121 -190 0
-124 -22 0
-124 -28 0
-124 -64 0
-124 -103 0
-124 -118 0
-124 -163 0
-124 -169 0
-124 -199 0
-124 -229 0
-124 -232 0
-127 -10 0
-127 -16 0
-127 -55 0
-127 -70 0
-127 -73 0
-127 -79 0
-127 -94 0
-127 -109 0
-127 -112 0
-127 -115 0
-130 -10 0
-130 -31 0
-130 -52 0
-130 -79 0
-130 -100 0
-130 -115 0
-130 -118 0
-130 -205 0
-130 -217 0
-133 -1 0
-133 -64 0
-133 -109 0
-133 -121 0
-133 -142 0
-133 -160 0
-133 -184 0
-133 -193 0
-133 -202 0
-133 -208 0
-136 -25 0
-136 -34 0
-136 -46 0
-136 -58 0
-136 -100 0
-136 -112 0
-136 -115 0
-136 -151 0
-136 -154 0
-139 -7 0
-139 -22 0
-139 -34 0
-139 -61 0
-139 -64 0
-139 -91 0
-139 -94 0
-139 -100 0
-139 -112 0
-139 -151 0
-142 -37 0
-142 -88 0
-142 -133 0
-142 -151 0
-142 -178 0
-142 -199 0
-142 -211 0
-142 -214 0
-142 -235 0
-145 -4 0
-145 -10 0
-145 -19 0
-145 -40 0
-145 -43 0
-145 -67 0
-145 -115 0
-145 -157 0
-145 -193 0
-145 -217 0
-148 -1 0
-148 -13 0
-148 -19 0
-148 -31 0
-148 -193 0
-148 -199 0
-148 -214 0
-148 -217 0
-151 -55 0
-151 -136 0
-151 -139 0
-151 -142 0
-151 -154 0
-151 -163 0
-151 -172 0
-151 -211 0
-151 -223 0
-151 -229 0
-154 -19 0
-154 -34 0
-154 -43 0
-154 -100 0
-154 -121 0
-154 -136 0
-154 -151 0
-154 -190 0
-154 -196 0
-157 -7 0
-157 -13 0
-157 -103 0
-157 -106 0
-157 -145 0
-157 -172 0
-157 -184 0
-157 -214 0
-157 -226 0
-157 -229 0
-160 -22 0
-160 -46 0
-160 -67 0
-160 -97 0
-160 -133 0
-160 -163 0
-160 -178 0
-160 -187 0
-160 -205 0
-160 -235 0
-163 -7 0
-163 -13 0
-163 -19 0
-163 -70 0
-163 -91 0
-163 -106 0
-163 -124 0
-163 -151 0
-163 -160 0
-163 -238 0
-166 -13 0
-166 -25 0
-166 -34 0
-166 -40 0
-166 -58 0
-166 -82 0
-166 -85 0
-166 -103 0
-166 -196 0
-166 -205 0
-169 -13 0
-169 -34 0
-169 -70 0
-169 -97 0
-169 -118 0
-169 -124 0
-169 -229 0
-169 -238 0
-172 -28 0
-172 -43 0
-172 -112 0
-172 -151 0
-172 -157 0
-172 -175 0
-172 -190 0
-172 -202 0
-172 -238 0
-175 -1 0
-175 -37 0
-175 -43 0
-175 -58 0
-175 -73 0
-175 -97 0
-175 -118 0
-175 -172 0
-178 -7 0
-178 -13 0
-178 -19 0
-178 -76 0
-178 -79 0
-178 -142 0
-178 -160 0
-178 -196 0
-178 -220 0
-178 -226 0
-181 -22 0
-181 -28 0
-181 -67 0
-181 -73 0
-181 -79 0
-181 -97 0
-181 -115 0
-181 -190 0
-181 -214 0
-181 -229 0
-184 -1 0
-184 -55 0
-184 -64 0
-184 -118 0
-184 -133 0
-184 -157 0
-184 -217 0
-184 -223 0
-184 -232 0
-184 -235 0
-187 -52 0
-187 -76 0
-187 -112 0
-187 -160 0
-187 -196 0
-187 -202 0
-187 -217 0
-187 -220 0
-187 -229 0
-187 -232 0
-190 -7 0
-190 -40 0
-190 -67 0
-190 -91 0
-190 -100 0
-190 -112 0
-190 -121 0
-190 -154 0
-190 -172 0
-190 -181 0
-193 -1 0
-193 -37 0
-193 -40 0
-193 -49 0
-193 -64 0
-193 -67 0
-193 -115 0
-193 -133 0
-193 -145 0
-193 -148 0
-196 -4 0
-196 -16 0
-196 -49 0
-196 -58 0
-196 -91 0
-196 -154 0
-196 -166 0
-196 -178 0
-196 -187 0
-196 -208 0
-199 -4 0
-199 -7 0
-199 -73 0
-199 -88 0
-199 -118 0
-199 -124 0
-199 -142 0
-199 -148 0
-202 -55 0
-202 -106 0
-202 -133 0
-202 -172 0
-202 -187 0
-202 -208 0
-202 -220 0
-202 -232 0
-202 -235 0
-205 -13 0
-205 -25 0
-205 -28 0
-205 -46 0
-205 -49 0
-205 -115 0
-205 -130 0
-205 -160 0
-205 -166 0
-208 -37 0
-208 -52 0
-208 -67 0
-208 -70 0
-208 -82 0
-208 -85 0
-208 -91 0
-208 -133 0
-208 -196 0
-208 -202 0
-211 -25 0
-211 -37 0
-211 -43 0
-211 -103 0
-211 -142 0
-211 -151 0
-211 -226 0
-211 -229 0
-211 -235 0
-214 -34 0
-214 -40 0
-214 -70 0
-214 -88 0
-214 -142 0
-214 -148 0
-214 -157 0
-214 -181 0
-214 -226 0
-214 -232 0
-217 -25 0
-217 -34 0
-217 -46 0
-217 -58 0
-217 -130 0
-217 -145 0
-217 -148 0
-217 -184 0
-217 -187 0
-220 -25 0
-220 -28 0
-220 -79 0
-220 -103 0
-220 -118 0
-220 -178 0
-220 -187 0
-220 -202 0
-223 -22 0
-223 -52 0
-223 -64 0
-223 -85 0
-223 -151 0
-223 -184 0
-223 -226 0
-223 -238 0
-226 -37 0
-226 -85 0
-226 -88 0
-226 -112 0
-226 -118 0
-226 -157 0
-226 -178 0
-226 -211 0
-226 -214 0
-226 -223 0
-229 -73 0
-229 -79 0
-229 -115 0
-229 -124 0
-229 -151 0
-229 -157 0
-229 -169 0
-229 -181 0
-229 -187 0
-229 -211 0
-232 -10 0
-232 -13 0
-232 -55 0
-232 -103 0
-232 -124 0
-232 -184 0
-232 -187 0
-232 -202 0
-232 -214 0
-235 -16 0
-235 -49 0
-235 -55 0
-235 -82 0
-235 -142 0
-235 -160 0
-235 -184 0
-235 -202 0
-235 -211 0
-238 -16 0
-238 -31 0
-238 -49 0
-238 -73 0
-238 -91 0
-238 -97 0
-238 -163 0
-238 -169 0
-238 -172 0
-238 -223 0
-2 -62 0
-2 -71 0
-2 -134 0
-2 -149 0
-2 -176 0
-2 -185 0
-2 -194 0
-5 -11 0
-5 -23 0
-5 -44 0
-5 -62 0
-5 -77 0
-5 -110 0
-5 -146 0
-5 -197 0
-5 -200 0
-8 -68 0
-8 -86 0
-8 -89 0
-8 -95 0
-8 -140 0
-8 -158 0
-8 -164 0
-8 -179 0
-8 -191 0
-8 -200 0
-11 -5 0
-11 -17 0
-11 -29 0
-11 -59 0
-11 -83 0
-11 -95 0
-11 -128 0
-11 -131 0
-11 -146 0
-11 -233 0
-14 -98 0
-14 -110 0
-14 -149 0
-14 -158 0
-14 -164 0
-14 -167 0
-14 -170 0
-14 -179 0
-14 -206 0
-14 -233 0
-17 -11 0
-17 -20 0
-17 -86 0
-17 -110 0
-17 -128 0
-17 -197 0
-17 -236 0
-17 -239 0
-20 -17 0
-20 -29 0
-20 -53 0
-20 -59 0
-20 -62 0
-20 -146 0
-20 -149 0
-20 -155 0
-20 -164 0
-20 -179 0
-23 -5 0
-23 -32 0
-23 -38 0
-23 -41 0
-23 -125 0
-23 -140 0
-23 -161 0
-23 -182 0
-23 -224 0
-26 -29 0
-26 -62 0
-26 -80 0
-26 -101 0
-26 -137 0
-26 -167 0
-26 -206 0
-26 -212 0
-26 -218 0
-26 -221 0
-29 -11 0
-29 -20 0
-29 -26 0
-29 -95 0
-29 -122 0
-29 -125 0
-29 -173 0
-29 -182 0
-29 -206 0
-29 -221 0
-32 -23 0
-32 -38 0
-32 -56 0
-32 -62 0
-32 -95 0
-32 -131 0
-32 -149 0
-32 -239 0
-35 -119 0
-35 -137 0
-35 -140 0
-35 -155 0
-35 -167 0
-35 -170 0
-35 -215 0
-35 -218 0
-38 -23 0
-38 -32 0
-38 -53 0
-38 -98 0
-38 -143 0
-38 -176 0
-38 -194 0
-38 -209 0
-38 -212 0
-38 -227 0
-41 -23 0
-41 -83 0
-41 -92 0
-41 -98 0
-41 -122 0
-41 -146 0
-41 -167 0
-41 -191 0
-41 -194 0
-41 -215 0
-44 -5 0
-44 -53 0
-44 -74 0
-44 -86 0
-44 -146 0
-44 -155 0
-44 -173 0
-44 -176 0
-44 -212 0
-47 -53 0
-47 -89 0
-47 -95 0
-47 -107 0
-47 -137 0
-47 -161 0
-47 -206 0
-47 -218 0
-50 -59 0
-50 -89 0
-50 -119 0
-50 -122 0
-50 -194 0
-50 -197 0
-50 -206 0
-50 -236 0
-50 -239 0
-53 -20 0
-53 -38 0
-53 -44 0
-53 -47 0
-53 -71 0
-53 -92 0
-53 -131 0
-53 -188 0
-53 -209 0
-53 -224 0
-56 -32 0
-56 -62 0
-56 -95 0
-56 -128 0
-56 -152 0
-56 -185 0
-56 -203 0
-56 -233 0
-56 -236 0
-59 -11 0
-59 -20 0
-59 -50 0
-59 -68 0
-59 -107 0
-59 -137 0
-59 -167 0
-59 -176 0
-59 -197 0
-59 -218 0
-62 -2 0
-62 -5 0
-62 -20 0
-62 -26 0
-62 -32 0
-62 -56 0
-62 -77 0
-62 -140 0
-65 -77 0
-65 -92 0
-65 -101 0
-65 -107 0
-65 -125 0
-65 -134 0
-65 -140 0
-65 -185 0
-65 -194 0
-65 -224 0
-68 -8 0
-68 -59 0
-68 -86 0
-68 -95 0
-68 -146 0
-68 -161 0
-68 -182 0
-68 -191 0
-68 -194 0
-68 -209 0
-71 -2 0
-71 -53 0
-71 -128 0
-71 -164 0
-71 -170 0
-71 -209 0
-71 -215 0
-74 -44 0
-74 -83 0
-74 -110 0
-74 -128 0
-74 -176 0
-74 -182 0
-74 -200 0
-74 -230 0
-74 -239 0
-77 -5 0
-77 -62 0
-77 -65 0
-77 -89 0
-77 -98 0
-77 -107 0
-77 -179 0
-77 -188 0
-80 -26 0
-80 -83 0
-80 -86 0
-80 -128 0
-80 -131 0
-80 -179 0
-80 -182 0
-80 -221 0
-80 -230 0
-83 -11 0
-83 -41 0
-83 -74 0
-83 -80 0
-83 -92 0
-83 -110 0
-83 -122 0
-83 -167 0
-83 -209 0
-83 -236 0
-86 -8 0
-86 -17 0
-86 -44 0
-86 -68 0
-86 -80 0
-86 -89 0
-86 -167 0
-86 -209 0
-86 -224 0
-86 -227 0
-89 -8 0
-89 -47 0
-89 -50 0
-89 -77 0
-89 -86 0
-89 -98 0
-89 -143 0
-89 -200 0
-89 -215 0
-89 -227 0
-92 -41 0
-92 -53 0
-92 -65 0
-92 -83 0
-92 -140 0
-92 -164 0
-92 -191 0
-92 -197 0
-92 -209 0
-92 -239 0
-95 -8 0
-95 -11 0
-95 -29 0
-95 -32 0
-95 -47 0
-95 -56 0
-95 -68 0
-95 -128 0
-95 -140 0
-98 -14 0
-98 -38 0
-98 -41 0
-98 -77 0
-98 -89 0
-98 -161 0
-98 -170 0
-98 -176 0
-98 -182 0
-98 -239 0
-101 -26 0
-101 -65 0
-101 -107 0
-101 -131 0
-101 -137 0
-101 -140 0
-101 -155 0
-101 -191 0
-104 -113 0
-104 -122 0
-104 -125 0
-104 -158 0
-104 -167 0
-104 -212 0
-104 -221 0
-104 -233 0
-107 -47 0
-107 -59 0
-107 -65 0
-107 -77 0
-107 -101 0
-107 -116 0
-107 -158 0
-107 -164 0
-107 -203 0
-110 -5 0
-110 -14 0
-110 -17 0
-110 -74 0
-110 -83 0
-110 -113 0
-110 -122 0
-110 -128 0
-110 -134 0
-113 -104 0
-113 -110 0
-113 -128 0
-113 -137 0
-113 -140 0
-113 -173 0
-113 -188 0
-113 -191 0
-113 -227 0
-116 -107 0
-116 -122 0
-116 -128 0
-116 -131 0
-116 -137 0
-116 -146 0
-116 -182 0
-116 -194 0
-116 -206 0
-116 -230 0
-119 -35 0
-119 -50 0
-119 -125 0
-119 -131 0
-119 -170 0
-119 -176 0
-119 -185 0
-119 -200 0
-119 -221 0
-119 -227 0
-122 -29 0
-122 -41 0
-122 -50 0
-122 -83 0
-122 -104 0
-122 -110 0
-122 -116 0
-122 -134 0
-122 -155 0
-122 -191 0
-125 -23 0
-125 -29 0
-125 -65 0
-125 -104 0
-125 -119 0
-125 -164 0
-125 -170 0
-125 -200 0
-125 -230 0
-125 -233 0
-128 -11 0
-128 -17 0
-128 -56 0
-128 -71 0
-128 -74 0
-128 -80 0
-128 -95 0
-128 -110 0
-128 -113 0
-128 -116 0
-131 -11 0
-131 -32 0
-131 -53 0
-131 -80 0
-131 -101 0
-131 -116 0
-131 -119 0
-131 -206 0
-131 -218 0
-134 -2 0
-134 -65 0
-134 -110 0
-134 -122 0
-134 -143 0
-134 -161 0
-134 -185 0
-134 -194 0
-134 -203 0
-134 -209 0
-137 -26 0
-137 -35 0
-137 -47 0
-137 -59 0
-137 -101 0
-137 -113 0
-137 -116 0
-137 -152 0
-137 -155 0
-140 -8 0
-140 -23 0
-140 -35 0
-140 -62 0
-140 -65 0
-140 -92 0
-140 -95 0
-140 -101 0
-140 -113 0
-140 -152 0
-143 -38 0
-143 -89 0
-143 -134 0
-143 -152 0
-143 -179 0
-143 -200 0
-143 -212 0
-143 -215 0
-143 -236 0
-146 -5 0
-146 -11 0
-146 -20 0
-146 -41 0
-146 -44 0
-146 -68 0
-146 -116 0
-146 -158 0
-146 -194 0
-146 -218 0
-149 -2 0
-149 -14 0
-149 -20 0
-149 -32 0
-149 -194 0
-149 -200 0
-149 -215 0
-149 -218 0
-152 -56 0
-152 -137 0
-152 -140 0
-152 -143 0
-152 -155 0
-152 -164 0
-152 -173 0
-152 -212 0
-152 -224 0
-152 -230 0
-155 -20 0
-155 -35 0
-155 -44 0
-155 -101 0
-155 -122 0
-155 -137 0
-155 -152 0
-155 -191 0
-155 -197 0
-158 -8 0
-158 -14 0
-158 -104 0
-158 -107 0
-158 -146 0
-158 -173 0
-158 -185 0
-158 -215 0
-158 -227 0
-158 -230 0
-161 -23 0
-161 -47 0
-161 -68 0
-161 -98 0
-161 -134 0
-161 -164 0
-161 -179 0
-161 -188 0
-161 -206 0
-161 -236 0
-164 -8 0
-164 -14 0
-164 -20 0
-164 -71 0
-164 -92 0
-164 -107 0
-164 -125 0
-164 -152 0
-164 -161 0
-164 -239 0
-167 -14 0
-167 -26 0
-167 -35 0
-167 -41 0
-167 -59 0
-167 -83 0
-167 -86 0
-167 -104 0
-167 -197 0
-167 -206 0
-170 -14 0
-170 -35 0
-170 -71 0
-170 -98 0
-170 -119 0
-170 -125 0
-170 -230 0
-170 -239 0
-173 -29 0
-173 -44 0
-173 -113 0
-173 -152 0
-173 -158 0
-173 -176 0
-173 -191 0
-173 -203 0
-173 -239 0
-176 -2 0
-176 -38 0
-176 -44 0
-176 -59 0
-176 -74 0
-176 -98 0
-176 -119 0
-176 -173 0
-179 -8 0
-179 -14 0
-179 -20 0
-179 -77 0
-179 -80 0
-179 -143 0
-179 -161 0
-179 -197 0
-179 -221 0
-179 -227 0
-182 -23 0
-182 -29 0
-182 -68 0
-182 -74 0
-182 -80 0
-182 -98 0
-182 -116 0
-182 -191 0
-182 -215 0
-182 -230 0
-185 -2 0
-185 -56 0
-185 -65 0
-185 -119 0
-185 -134 0
-185 -158 0
-185 -218 0
-185 -224 0
-185 -233 0
-185 -236 0
-188 -53 0
-188 -77 0
-188 -113 0
-188 -161 0
-188 -197 0
-188 -203 0
-188 -218 0
-188 -221 0
-188 -230 0
-188 -233 0
-191 -8 0
-191 -41 0
-191 -68 0
-191 -92 0
-191 -101 0
-191 -113 0
-191 -122 0
-191 -155 0
-191 -173 0
-191 -182 0
-194 -2 0
-194 -38 0
-194 -41 0
-194 -50 0
-194 -65 0
-194 -68 0
-194 -116 0
-194 -134 0
-194 -146 0
-194 -149 0
-197 -5 0
-197 -17 0
-197 -50 0
-197 -59 0
-197 -92 0
-197 -155 0
-197 -167 0
-197 -179 0
-197 -188 0
-197 -209 0
-200 -5 0
-200 -8 0
-200 -74 0
-200 -89 0
-200 -119 0
-200 -125 0
-200 -143 0
-200 -149 0
-203 -56 0
-203 -107 0
-203 -134 0
-203 -173 0
-203 -188 0
-203 -209 0
-203 -221 0
-203 -233 0
-203 -236 0
-206 -14 0
-206 -26 0
-206 -29 0
-206 -47 0
-206 -50 0
-206 -116 0
-206 -131 0
-206 -161 0
-206 -167 0
-209 -38 0
-209 -53 0
-209 -68 0
-209 -71 0
-209 -83 0
-209 -86 0
-209 -92 0
-209 -134 0
-209 -197 0
-209 -203 0
-212 -26 0
-212 -38 0
-212 -44 0
-212 -104 0
-212 -143 0
-212 -152 0
-212 -227 0
-212 -230 0
-212 -236 0
-215 -35 0
-215 -41 0
-215 -71 0
-215 -89 0
-215 -143 0
-215 -149 0
-215 -158 0
-215 -182 0
-215 -227 0
-215 -233 0
-218 -26 0
-218 -35 0
-218 -47 0
-218 -59 0
-218 -131 0
-218 -146 0
-218 -149 0
-218 -185 0
-218 -188 0
-221 -26 0
-221 -29 0
-221 -80 0
-221 -104 0
-221 -119 0
-221 -179 0
-221 -188 0
-221 -203 0
-224 -23 0
-224 -53 0
-224 -65 0
-224 -86 0
-224 -152 0
-224 -185 0
-224 -227 0
-224 -239 0
-227 -38 0
-227 -86 0
-227 -89 0
-227 -113 0
-227 -119 0
-227 -158 0
-227 -179 0
-227 -212 0
-227 -215 0
-227 -224 0
-230 -74 0
-230 -80 0
-230 -116 0
-230 -125 0
-230 -152 0
-230 -158 0
-230 -170 0
-230 -182 0
-230 -188 0
-230 -212 0
-233 -11 0
-233 -14 0
-233 -56 0
-233 -104 0
-233 -125 0
-233 -185 0
-233 -188 0
-233 -203 0
-233 -215 0
-236 -17 0
-236 -50 0
-236 -56 0
-236 -83 0
-236 -143 0
-236 -161 0
-236 -185 0
-236 -203 0
-236 -212 0
-239 -17 0
-239 -32 0
-239 -50 0
-239 -74 0
-239 -92 0
-239 -98 0
-239 -164 0
-239 -170 0
-239 -173 0
-239 -224 0
-3 -63 0
-3 -72 0
-3 -135 0
-3 -150 0
-3 -177 0
-3 -186 0
-3 -195 0
-6 -12 0
-6 -24 0
-6 -45 0
-6 -63 0
-6 -78 0
-6 -111 0
-6 -147 0
-6 -198 0
-6 -201 0
-9 -69 0
-9 -87 0
-9 -90 0
-9 -96 0
-9 -141 0
-9 -159 0
-9 -165 0
-9 -180 0
-9 -192 0
-9 -201 0
-12 -6 0
-12 -18 0
-12 -30 0
-12 -60 0
-12 -84 0
-12 -96 0
-12 -129 0
-12 -132 0
-12 -147 0
-12 -234 0
-15 -99 0
-15 -111 0
-15 -150 0
-15 -159 0
-15 -165 0
-15 -168 0
-15 -171 0
-15 -180 0
-15 -207 0
-15 -234 0
-18 -12 0
-18 -21 0
-18 -87 0
-18 -111 0
-18 -129 0
-18 -198 0
-18 -237 0
-18 -240 0
-21 -18 0
-21 -30 0
-21 -54 0
-21 -60 0
-21 -63 0
-21 -147 0
-21 -150 0
-21 -156 0
-21 -165 0
-21 -180 0
-24 -6 0
-24 -33 0
-24 -39 0
-24 -42 0
-24 -126 0
-24 -141 0
-24 -162 0
-24 -183 0
-24 -225 0
-27 -30 0
-27 -63 0
-27 -81 0
-27 -102 0
-27 -138 0
-27 -168 0
-27 -207 0
-27 -213 0
-27 -219 0
-27 -222 0
-30 -12 0
-30 -21 0
-30 -27 0
-30 -96 0
-30 -123 0
-30 -126 0
-30 -174 0
-30 -183 0
-30 -207 0
-30 -222 0
-33 -24 0
-33 -39 0
-33 -57 0
-33 -63 0
-33 -96 0
-33 -132 0
-33 -150 0
-33 -240 0
-36 -120 0
-36 -138 0
-36 -141 0
-36 -156 0
-36 -168 0
-36 -171 0
-36 -216 0
-36 -219 0
-39 -24 0
-39 -33 0
-39 -54 0
-39 -99 0
-39 -144 0
-39 -177 0
-39 -195 0
-39 -210 0
-39 -213 0
-39 -228 0
-42 -24 0
-42 -84 0
-42 -93 0
-42 -99 0
-42 -123 0
-42 -147 0
-42 -168 0
-42 -192 0
-42 -195 0
-42 -216 0
-45 -6 0
-45 -54 0
-45 -75 0
-45 -87 0
-45 -147 0
-45 -156 0
-45 -174 0
-45 -177 0
-45 -213 0
-48 -54 0
-48 -90 0
-48 -96 0
-48 -108 0
-48 -138 0
-48 -162 0
-48 -207 0
-48 -219 0
-51 -60 0
-51 -90 0
-51 -120 0
-51 -123 0
-51 -195 0
-51 -198 0
-51 -207 0
-51 -237 0
-51 -240 0
-54 -21 0
-54 -39 0
-54 -45 0
-54 -48 0
-54 -72 0
-54 -93 0
-54 -132 0
-54 -189 0
-54 -210 0
-54 -225 0
-57 -33 0
-57 -63 0
-57 -96 0
-57 -129 0
-57 -153 0
-57 -186 0
-57 -204 0
-57 -234 0
-57 -237 0
-60 -12 0
-60 -21 0
-60 -51 0
-60 -69 0
-60 -108 0
-60 -138 0
-60 -168 0
-60 -177 0
-60 -198 0
-60 -219 0
-63 -3 0
-63 -6 0
-63 -21 0
-63 -27 0
-63 -33 0
-63 -57 0
-63 -78 0
-63 -141 0
-66 -78 0
-66 -93 0
-66 -102 0
-66 -108 0
-66 -126 0
-66 -135 0
-66 -141 0
-66 -186 0
-66 -195 0
-66 -225 0
-69 -9 0
-69 -60 0
-69 -87 0
-69 -96 0
-69 -147 0
-69 -162 0
-69 -183 0
-69 -192 0
-69 -195 0
-69 -210 0
-72 -3 0
-72 -54 0
-72 -129 0
-72 -165 0
-72 -171 0
-72 -210 0
-72 -216 0
-75 -45 0
-75 -84 0
-75 -111 0
-75 -129 0
-75 -177 0
-75 -183 0
-75 -201 0
-75 -231 0
-75 -240 0
-78 -6 0
-78 -63 0
-78 -66 0
-78 -90 0
-78 -99 0
-78 -108 0
-78 -180 0
-78 -189 0
-81 -27 0
-81 -84 0
-81 -87 0
-81 -129 0
-81 -132 0
-81 -180 0
-81 -183 0
-81 -222 0
-81 -231 0
-84 -12 0
-84 -42 0
-84 -75 0
-84 -81 0
-84 -93 0
-84 -111 0
-84 -123 0
-84 -168 0
-84 -210 0
-84 -237 0
-87 -9 0
-87 -18 0
-87 -45 0
-87 -69 0
-87 -81 0
-87 -90 0
-87 -168 0
-87 -210 0
-87 -225 0
-87 -228 0
-90 -9 0
-90 -48 0
-90 -51 0
-90 -78 0
-90 -87 0
-90 -99 0
-90 -144 0
-90 -201 0
-90 -216 0
-90 -228 0
-93 -42 0
-93 -54 0
-93 -66 0
-93 -84 0
-93 -141 0
-93 -165 0
-93 -192 0
-93 -198 0
-93 -210 0
-93 -240 0
-96 -9 0
-96 -12 0
-96 -30 0
-96 -33 0
-96 -48 0
-96 -57 0
-96 -69 0
-96 -129 0
-96 -141 0
-99 -15 0
-99 -39 0
-99 -42 0
-99 -78 0
-99 -90 0
-99 -162 0
-99 -171 0
-99 -177 0
-99 -183 0
-99 -240 0
-102 -27 0
-102 -66 0
-102 -108 0
-102 -132 0
-102 -138 0
-102 -141 0
-102 -156 0
-102 -192 0
-105 -114 0
-105 -123 0
-105 -126 0
-105 -159 0
-105 -168 0
-105 -213 0
-105 -222 0
-105 -234 0
-108 -48 0
-108 -60 0
-108 -66 0
-108 -78 0
-108 -102 0
-108 -117 0
-108 -159 0
-108 -165 0
-108 -204 0
-111 -6 0
-111 -15 0
-111 -18 0
-111 -75 0
-111 -84 0
-111 -114 0
-111 -123 0
-111 -129 0
-111 -135 0
-114 -105 0
-114 -111 0
-114 -129 0
-114 -138 0
-114 -141 0
-114 -174 0
-114 -189 0
-114 -192 0
-114 -228 0
-117 -108 0
-117 -123 0
-117 -129 0
-117 -132 0
-117 -138 0
-117 -147 0
-117 -183 0
-117 -195 0
-117 -207 0
-117 -231 0
-120 -36 0
-120 -51 0
-120 -126 0
-120 -132 0
-120 -171 0
-120 -177 0
-120 -186 0
-120 -201 0
-120 -222 0
-120 -228 0
-123 -30 0
-123 -42 0
-123 -51 0
-123 -84 0
-123 -105 0
-123 -111 0
-123 -117 0
-123 -135 0
-123 -156 0
-123 -192 0
-126 -24 0
-126 -30 0
-126 -66 0
-126 -105 0
-126 -120 0
-126 -165 0
-126 -171 0
-126 -201 0
-126 -231 0
-126 -234 0
-129 -12 0
-129 -18 0
-129 -57 0
-129 -72 0
-129 -75 0
-129 -81 0
-129 -96 0
-129 -111 0
-129 -114 0
-129 -117 0
-132 -12 0
-132 -33 0
-132 -54 0
-132 -81 0
-132 -102 0
-132 -117 0
-132 -120 0
-132 -207 0
-132 -219 0
-135 -3 0
-135 -66 0
-135 -111 0
-135 -123 0
-135 -144 0
-135 -162 0
-135 -186 0
-135 -195 0
-135 -204 0
-135 -210 0
-138 -27 0
-138 -36 0
-138 -48 0
-138 -60 0
-138 -102 0
-138 -114 0
-138 -117 0
-138 -153 0
-138 -156 0
-141 -9 0
-141 -24 0
-141 -36 0
-141 -63 0
-141 -66 0
-141 -93 0
-141 -96 0
-141 -102 0
-141 -114 0
-141 -153 0
-144 -39 0
-144 -90 0
-144 -135 0
-144 -153 0
-144 -180 0
-144 -201 0
-144 -213 0
-144 -216 0
-144 -237 0
-147 -6 0
-147 -12 0
-147 -21 0
-147 -42 0
-147 -45 0
-147 -69 0
-147 -117 0
-147 -159 0
-147 -195 0
-147 -219 0
-150 -3 0
-150 -15 0
-150 -21 0
-150 -33 0
-150 -195 0
-150 -201 0
-150 -216 0
-150 -219 0
-153 -57 0
-153 -138 0
-153 -141 0
-153 -144 0
-153 -156 0
-153 -165 0
-153 -174 0
-153 -213 0
-153 -225 0
-153 -231 0
-156 -21 0
-156 -36 0
-156 -45 0
-156 -102 0
-156 -123 0
-156 -138 0
-156 -153 0
-156 -192 0
-156 -198 0
-159 -9 0
-159 -15 0
-159 -105 0
-159 -108 0
-159 -147 0
-159 -174 0
-159 -186 0
-159 -216 0
-159 -228 0
-159 -231 0
-162 -24 0
-162 -48 0
-162 -69 0
-162 -99 0
-162 -135 0
-162 -165 0
-162 -180 0
-162 -189 0
-162 -207 0
-162 -237 0
-165 -9 0
-165 -15 0
-165 -21 0
-165 -72 0
-165 -93 0
-165 -108 0
-165 -126 0
-165 -153 0
-165 -162 0
-165 -240 0
-168 -15 0
-168 -27 0
-168 -36 0
-168 -42 0
-168 -60 0
-168 -84 0
-168 -87 0
-168 -105 0
-168 -198 0
-168 -207 0
-171 -15 0
-171 -36 0
-171 -72 0
-171 -99 0
-171 -120 0
-171 -126 0
-171 -231 0
-171 -240 0
-174 -30 0
-174 -45 0
-174 -114 0
-174 -153 0
-174 -159 0
-174 -177 0
-174 -192 0
-174 -204 0
-174 -240 0
-177 -3 0
-177 -39 0
-177 -45 0
-177 -60 0
-177 -75 0
-177 -99 0
-177 -120 0
-177 -174 0
-180 -9 0
-180 -15 0
-180 -21 0
-180 -78 0
-180 -81 0
-180 -144 0
-180 -162 0
-180 -198 0
-180 -222 0
-180 -228 0
-183 -24 0
-183 -30 0
-183 -69 0
-183 -75 0
-183 -81 0
-183 -99 0
-183 -117 0
-183 -192 0
-183 -216 0
-183 -231 0
-186 -3 0
-186 -57 0
-186 -66 0
-186 -120 0
-186 -135 0
-186 -159 0
-186 -219 0
-186 -225 0
-186 -234 0
-186 -237 0
-189 -54 0
-189 -78 0
-189 -114 0
-189 -162 0
-189 -198 0
-189 -204 0
-189 -219 0
-189 -222 0
-189 -231 0
-189 -234 0
-192 -9 0
-192 -42 0
-192 -69 0
-192 -93 0
-192 -102 0
-192 -114 0
-192 -123 0
-192 -156 0
-192 -174 0
-192 -183 0
-195 -3 0
-195 -39 0
-195 -42 0
-195 -51 0
-195 -66 0
-195 -69 0
-195 -117 0
-195 -135 0
-195 -147 0
-195 -150 0
-198 -6 0
-198 -18 0
-198 -51 0
-198 -60 0
-198 -93 0
-198 -156 0
-198 -168 0
-198 -180 0
-198 -189 0
-198 -210 0
-201 -6 0
-201 -9 0
-201 -75 0
-201 -90 0
-201 -120 0
-201 -126 0
-201 -144 0
-201 -150 0
-204 -57 0
-204 -108 0
-204 -135 0
-204 -174 0
-204 -189 0
-204 -210 0
-204 -222 0
-204 -234 0
-204 -237 0
-207 -15 0
-207 -27 0
-207 -30 0
-207 -48 0
-207 -51 0
-207 -117 0
-207 -132 0
-207 -162 0
-207 -168 0
-210 -39 0
-210 -54 0
-210 -69 0
-210 -72 0
-210 -84 0
-210 -87 0
-210 -93 0
-210 -135 0
-210 -198 0
-210 -204 0
-213 -27 0
-213 -39 0
-213 -45 0
-213 -105 0
-213 -144 0
-213 -153 0
-213 -228 0
-213 -231 0
-213 -237 0
-216 -36 0
-216 -42 0
-216 -72 0
-216 -90 0
-216 -144 0
-216 -150 0
-216 -159 0
-216 -183 0
-216 -228 0
-216 -234 0
-219 -27 0
-219 -36 0
-219 -48 0
-219 -60 0
-219 -132 0
-219 -147 0
-219 -150 0
-219 -186 0
-219 -189 0
-222 -27 0
-222 -30 0
-222 -81 0
-222 -105 0
-222 -120 0
-222 -180 0
-222 -189 0
-222 -204 0
-225 -24 0
-225 -54 0
-225 -66 0
-225 -87 0
-225 -153 0
-225 -186 0
-225 -228 0
-225 -240 0
-228 -39 0
-228 -87 0
-228 -90 0
-228 -114 0
-228 -120 0
-228 -159 0
-228 -180 0
-228 -213 0
-228 -216 0
-228 -225 0
-231 -75 0
-231 -81 0
-231 -117 0
-231 -126 0
-231 -153 0
-231 -159 0
-231 -171 0
-231 -183 0
-231 -189 0
-231 -213 0
-234 -12 0
-234 -15 0
-234 -57 0
-234 -105 0
-234 -126 0
-234 -186 0
-234 -189 0
-234 -204 0
-234 -216 0
-237 -18 0
-237 -51 0
-237 -57 0
-237 -84 0
-237 -144 0
-237 -162 0
-237 -186 0
-237 -204 0
-237 -213 0
-240 -18 0
-240 -33 0
-240 -51 0
-240 -75 0
-240 -93 0
-240 -99 0
-240 -165 0
-240 -171 0
-240 -174 0
-240 -225 0
